Ni  C  H 
 1.0000000000000000
    16.0000000000000000    0.0000000000000000    0.0000000000000000
     0.0000000000000000   16.0000000000000000    0.0000000000000000
     0.0000000000000000    0.0000000000000000   16.0000000000000000
 Ni  C   H  
  30   2   6
Cartesian
  4.0868443200000000  7.4714489600000000  6.4011595200000002
  8.3988444799999993  7.2928360000000003 10.5046539200000009
  8.8130889600000000 10.9976649599999998  5.9307713599999996
  9.0065191999999996  4.4521230400000000  5.4591302400000004
  6.0377359999999998  7.3503448000000002 10.0519824000000000
 10.6145523199999996 10.0030318400000002  7.1783787200000004
 10.7666830400000002  5.3204350399999996  6.7999564799999996
  5.1709859199999997  9.3960475199999998  5.7391534399999999
  5.0832153599999996  5.5286768000000004  5.7361360000000001
  5.8123235199999996  7.6196815999999998  4.1027006400000001
  8.9635718400000002  4.1834428800000003  7.8677414399999996
  8.7897499200000002 10.8848390399999992  8.3346742400000000
  9.8150339199999994  8.9490960000000008  5.0911835200000004
 10.4462452799999994  6.6144092800000003  4.7996934400000004
  7.3628579199999997  9.2927368000000001  9.2711564800000001
  7.3105606400000003  5.2648460799999999  9.4367747200000007
  7.3616939199999996  9.4265628800000005  4.9019622399999996
  7.0885574399999998  5.5545271999999999  4.6322896000000000
  7.0532323200000002  5.0330703999999997  6.9694857600000004
  6.7730315200000000 10.4027187199999993  7.1490009600000004
  5.4369415999999999  8.6135088000000000  8.0430992000000003
  5.3151139199999999  6.1999862400000003  8.0475131199999996
  8.2731499199999998  7.4351892800000003  4.1353331200000003
  9.7658120000000004  8.6444145599999995  9.0968888000000003
  9.6255755199999999  6.2637676799999999  8.6345131199999994
 10.7063084800000006  7.7010267199999998  6.9972056000000000
  7.5192996799999996  7.1807961599999999  8.2940054399999994
  8.4958540800000009  8.8756064000000006  7.0041124799999999
  8.7428092799999995  6.5635097599999996  6.3051846400000002
  6.5058011200000001  7.4841977599999998  6.2048907199999999
 10.9265238399999998  9.1705534400000008 11.5319295999999998
 10.3029284800000003  7.9073945600000002 10.9249700799999996
 10.1692894400000000  9.8914223999999997 11.8665000000000003
 11.5781542399999999  9.6808153600000004 10.8036739199999996
  9.6821927999999993  7.4000615999999999 11.7534467199999995
 11.0866923199999992  7.1597055999999997 10.7103976000000003
 11.5635748799999991  8.9130529599999999 12.3976988800000001
  7.1123583999999997  6.2827563199999998 10.9073382399999996
