Ni  C  H 
 1.0000000000000000
    16.0000000000000000    0.0000000000000000    0.0000000000000000
     0.0000000000000000   16.0000000000000000    0.0000000000000000
     0.0000000000000000    0.0000000000000000   16.0000000000000000
 Ni  C   H  
  30   2   6
Cartesian
  4.0976353599999999  7.4136035199999997  6.3655769600000003
  8.3646902399999998  7.4306508800000000 10.4428953599999996
  8.7048921600000000 11.0737324800000003  5.8379430399999999
  9.0588427199999995  4.5640315200000003  5.4065459200000001
  6.0131982400000004  7.4095580800000000 10.0122488000000001
 10.5407140800000008 10.1390391999999991  7.0637123199999996
 10.8195315200000000  5.4553007999999998  6.7915852799999996
  5.1384656000000000  9.3523695999999994  5.6927590400000003
  5.0706137599999996  5.4331441600000003  5.7700438399999996
  5.7994428800000000  7.6396740799999998  4.0102542400000001
  9.0488249599999993  4.2826177599999999  7.8225084799999998
  8.6867014400000002 10.9899409600000002  8.2335043199999998
  9.7701955199999997  9.0153271999999998  5.0241224000000004
 10.4219532800000003  6.6812652799999999  4.7695116799999999
  7.2849953599999999  9.3953240000000005  9.2536257600000003
  7.3938952000000002  5.3208576000000001  9.3643428800000006
  7.3016784000000001  9.4582739199999999  4.8216044800000004
  7.0480704000000003  5.5376305600000002  4.6061360000000002
  7.0927064000000000  5.0394009600000000  6.9416670399999996
  6.6618678400000002 10.4819323200000003  7.0862727999999997
  5.4340788800000004  8.6197246399999994  7.9667340800000002
  5.3598091200000004  6.1901808000000003  8.0550212800000001
  8.2286827200000001  7.4406057600000004  4.1535120000000001
  9.6229212799999999  8.8106934399999997  8.8696143999999997
  9.6453526400000005  6.3908686399999999  8.6462203199999994
 10.6755558399999995  7.8171972800000002  6.9469337600000003
  7.5065406399999999  7.2753345600000001  8.2759129599999994
  8.3700593600000008  8.9554932800000007  6.8860683199999997
  8.7454131200000003  6.6175864000000004  6.3267449600000001
  6.4660390400000001  7.4146268800000001  6.1271627200000003
 10.7719838400000008  8.8998811199999999 11.8485385599999997
  9.8855259199999992  7.6759958399999997 12.1073638399999997
 10.2463846400000005  9.8372267200000003 12.0708259200000008
 11.0839011200000002  8.9521870400000001 10.7872488000000004
  8.8212544000000008  7.9555934400000003 12.3152356800000007
 10.1894609599999999  7.0800686400000004 12.9791726399999998
 11.6916756799999995  8.8724222400000006 12.4506990399999999
  9.9524020800000006  6.9238129600000002 11.2602286399999993
