Ni  C  H 
 1.0000000000000000
    16.0000000000000000    0.0000000000000000    0.0000000000000000
     0.0000000000000000   16.0000000000000000    0.0000000000000000
     0.0000000000000000    0.0000000000000000   16.0000000000000000
 Ni  C   H  
  30   2   6
Cartesian
  4.1529854400000001  7.3544297600000004  6.4057728000000003
  8.4852276799999995  7.4743340800000002 10.5328694400000007
  8.6811208000000004 11.0852307200000002  5.8787289600000001
  9.1411486400000008  4.5612985600000000  5.4924003199999998
  6.1116067200000002  7.3603383999999998 10.0711270400000004
 10.5407497600000006 10.2067641600000005  7.1176481599999999
 10.8723416000000004  5.5352582400000001  6.8505048000000004
  5.1313768000000000  9.3282558400000006  5.7345075200000002
  5.1574944000000000  5.3884870400000002  5.8297395200000004
  5.8164823999999999  7.5873520000000001  4.0776939199999997
  9.1509609600000008  4.3387696000000000  7.9216755200000000
  8.6818276799999996 11.0206169599999999  8.2821958400000000
  9.7816953600000005  9.0572496000000005  5.0653879999999996
 10.4812052799999993  6.7515174399999998  4.8081798400000002
  7.3169908799999996  9.3716764799999996  9.2894552000000008
  7.4920931199999998  5.3554798400000001  9.4723451200000000
  7.3041422400000000  9.4352963200000008  4.8975083200000000
  7.1360921599999996  5.5193044799999997  4.6608788800000003
  7.1842099199999998  5.0377976000000002  7.0140740800000003
  6.6701774399999998 10.4418435200000008  7.1430267199999999
  5.4694468799999996  8.5624334399999995  8.0112153599999996
  5.4152497600000000  6.1459692800000001  8.1050606399999996
  8.2649740800000000  7.4508476799999999  4.1945817600000002
  9.6852295999999996  8.8659046400000001  9.0028927999999997
  9.7208611200000004  6.4602256000000002  8.7367692800000007
 10.7121511999999992  7.8966579200000000  7.0060601599999996
  7.5566673599999996  7.2594873599999996  8.2911892799999993
  8.4315344000000003  8.9705384000000006  6.9668291199999999
  8.8214475199999995  6.6328692800000004  6.3710137600000003
  6.5332998399999997  7.3872865599999997  6.1663600000000001
 10.9093745599999998  8.9861731200000001 11.6720936000000002
  9.8831409600000004  7.8742275199999998 11.7912084799999999
 10.4404263999999998  9.9817302399999992 11.6656764800000001
 11.5239625599999993  8.8929151999999991 10.7564073600000008
  9.1868832000000005  8.0498873599999996 12.6376912000000008
 10.3598788800000001  6.8875924800000004 11.9315920000000002
 11.6214961599999995  8.9671043200000007 12.5190844800000001
  7.2158515200000002  6.2922155200000001 10.8594564800000004
