Ni  C  H 
 1.0000000000000000
    16.0000000000000000    0.0000000000000000    0.0000000000000000
     0.0000000000000000   16.0000000000000000    0.0000000000000000
     0.0000000000000000    0.0000000000000000   16.0000000000000000
 Ni  C   H  
  30   2   6
Cartesian
  4.1340745600000002  7.3602748800000004  6.4721993600000003
  8.5538564800000003  7.5791147199999997 10.3908796799999994
  8.6434147200000009 11.0733793600000006  5.6627627199999999
  9.0852863999999993  4.5515019199999998  5.3953748800000003
  6.1816411200000001  7.4868108800000002 10.0386347199999992
 10.5440392000000003 10.1925889600000001  6.8321473599999996
 10.8801803199999991  5.5192936000000001  6.6800262400000001
  5.0995238399999998  9.3084337599999998  5.7237299200000002
  5.1040929600000000  5.3704412799999997  5.9088747200000000
  5.7068932800000001  7.5433678400000002  4.0720990400000003
  9.1864632000000004  4.3494915199999999  7.8232195200000003
  8.7344323199999998 11.0517161599999998  8.0613380800000005
  9.7040235199999998  9.0105793599999995  4.8532108799999998
 10.3735824000000001  6.6786228799999998  4.6387840000000002
  7.3973639999999996  9.4755827200000002  9.1854791999999996
  7.5867532799999999  5.4065891199999996  9.4013374400000007
  7.2162777599999997  9.4135908799999992  4.7510926400000004
  7.0282750399999996  5.4743396799999999  4.6593191999999997
  7.1806691200000001  5.0388688000000004  7.0035142400000003
  6.6687300799999996 10.4885756800000003  7.0174724800000003
  5.5111044800000002  8.6316336000000007  7.9909543999999997
  5.4840020799999998  6.2039947199999999  8.1518105599999995
  8.1445272000000006  7.3891841600000001  4.1116060799999996
  9.7183144000000006  8.8999454399999998  8.7109721600000007
  9.7891323200000002  6.4879664000000004  8.5847982399999996
 10.7052179200000008  7.8743628799999996  6.7741520000000000
  7.6275124800000000  7.3348593600000003  8.2623209600000003
  8.3817259199999992  8.9795614399999995  6.7687734400000004
  8.7788324800000002  6.6227996800000000  6.2815113599999997
  6.4819609600000003  7.3805848000000003  6.1556889600000000
 10.5985412799999992  8.9603659199999992 12.6984427199999992
  9.6117692800000007  7.8332012799999999 12.4143711999999997
 10.2628982400000002  9.5723324800000000 13.5486249599999997
 10.7042718400000005  9.6223641600000001 11.8266779199999998
  8.5880875200000002  8.2474358399999996 12.2058102399999999
  9.4789321599999994  7.1421753600000004 13.2590745600000002
 11.5938856000000001  8.5609825599999994 12.9424134399999993
  9.9877291199999991  7.1898511999999997 11.5667457599999999
