Ni  C  H 
 1.0000000000000000
    16.0000000000000000    0.0000000000000000    0.0000000000000000
     0.0000000000000000   16.0000000000000000    0.0000000000000000
     0.0000000000000000    0.0000000000000000   16.0000000000000000
 Ni  C   H  
  30   2   6
Cartesian
  4.1324350399999998  7.4527536000000003  6.4061849600000000
  8.4034977600000005  7.3666080000000003 10.5663592000000008
  8.8035033600000006 11.0487427199999999  6.0055150399999997
  9.0609500799999996  4.6165084800000002  5.4288257599999996
  6.0143880000000003  7.3875217600000003 10.0676854400000000
 10.6047311999999998 10.1159676800000007  7.2651700799999999
 10.8105992000000004  5.4450249599999996  6.8766262400000002
  5.2085508799999998  9.3899944000000009  5.7664287999999999
  5.0646564800000000  5.4525904000000001  5.8338430399999996
  5.9100913600000000  7.7245724800000000  4.0459020800000003
  9.0402488000000005  4.2696348799999999  7.8425913600000001
  8.7424704000000002 10.9672483199999995  8.4115764800000008
  9.8354207999999996  8.9899028800000007  5.2229279999999996
 10.5164915200000006  6.7116775999999998  4.8823752000000002
  7.3223887999999997  9.3238302399999995  9.3439239999999995
  7.4672366400000003  5.2876460800000000  9.5118470399999993
  7.4136300799999999  9.4316257599999993  4.9959396800000002
  7.0338814400000000  5.5743126399999996  4.6438544000000004
  7.0956241599999998  5.0521212799999997  6.9863032000000000
  6.7513419199999998 10.4688052799999998  7.1941455999999997
  5.4845716800000002  8.5985215999999998  8.0207988799999992
  5.3538659199999996  6.1627561599999998  8.1139595199999999
  8.3202558399999997  7.4327462400000002  4.2253932799999996
  9.7428795200000007  8.8114228800000003  9.1764190400000007
  9.6521656000000000  6.3380737600000003  8.7966940800000000
 10.7246665599999993  7.7924868800000002  7.1535408000000000
  7.4971724799999997  7.1941830400000004  8.3380252800000001
  8.4774798400000009  8.9316735999999999  7.1326204799999999
  8.8002719999999997  6.6374764800000001  6.4130168000000003
  6.5170828800000002  7.4061785599999999  6.1769886400000003
 10.5740390400000006  9.1828921599999997 11.4930120000000002
  9.8386225599999992  7.8850124800000003 11.7499067200000002
  9.9453142400000001 10.0642518400000007 11.6868697600000004
 11.0003084799999993  9.3010543999999999 10.4390521599999992
  9.1466260800000008  7.9636513600000001 12.6120611199999999
 10.5225080000000002  7.0404292799999997 11.9206286400000003
 11.4951230399999993  9.2736617599999995 12.0980006400000004
  8.6845726400000007  5.7661190400000004 10.5838382400000004
