Ni  C  H 
 1.0000000000000000
    16.0000000000000000    0.0000000000000000    0.0000000000000000
     0.0000000000000000   16.0000000000000000    0.0000000000000000
     0.0000000000000000    0.0000000000000000   16.0000000000000000
 Ni  C   H  
  30   2   6
Cartesian
  4.1088323200000003  7.3852116800000003  6.2716171200000002
  8.2780505600000005  7.4009662399999998 10.5145518399999993
  8.6730211199999996 11.0707588799999996  5.8613267200000001
  9.1176057600000000  4.4908270400000001  5.5900960000000000
  5.9426611200000004  7.4352584000000004  9.9809257599999999
 10.5002353599999996 10.1899168000000007  7.1305254400000004
 10.8354832000000005  5.5168972800000002  6.9296241600000004
  5.1097721600000003  9.3574040000000007  5.6468377600000004
  5.1376889600000002  5.4460639999999998  5.6769319999999999
  5.8100761600000004  7.5203267199999999  4.0992312000000002
  8.9998676799999995  4.5004391999999998  8.0241204800000006
  8.6225358399999994 10.9960713600000002  8.2724998400000000
  9.7721744000000008  9.0410798400000001  5.0862972800000001
 10.4641099200000003  6.7051348800000001  4.8443803200000000
  7.2222153599999999  9.3577710399999994  9.1966046400000003
  7.1748028799999997  5.3244697600000004  9.4903987200000000
  7.3033406400000001  9.4193113600000000  4.8678116800000000
  7.1937292800000003  5.5142439999999997  4.6698624000000004
  7.0653475200000004  5.0644311999999996  6.9980870399999997
  6.6393337600000004 10.4521812799999996  7.0622678399999996
  5.3686584000000002  8.5970923199999998  7.9268207999999998
  5.2899495999999999  6.1947830399999999  8.0128171199999993
  8.2840649600000003  7.4442263999999998  4.1860679999999997
  9.6173348799999996  8.8684056000000009  9.0488408000000007
  9.8164198400000000  6.5258072000000000  8.8517220800000000
 10.6788211200000003  7.8869649600000002  7.0039579200000004
  7.5560478399999997  7.1803819200000003  8.3125684799999995
  8.3937291199999997  8.9502360000000003  6.9849518399999999
  8.8017608000000003  6.6022345600000003  6.3881296000000001
  6.5287464000000002  7.4554262400000004  6.2039939200000003
 11.2426744000000003  8.6889417600000005 11.0675022399999996
 10.3072876800000000  7.5246891199999997 10.6850760000000005
 10.6858107199999992  9.5958875199999998 11.3485900799999992
 11.9307476799999996  8.9503231999999997 10.2471819199999992
  9.7468884800000009  7.1970644799999999 11.6272481600000006
 10.9387934399999995  6.6123403200000004 10.4800884799999992
 11.8693923199999993  8.4127996799999991 11.9341113599999993
  6.9514876799999996  6.4392251199999997 10.9323006399999993
