Ni  C  H 
 1.0000000000000000
    16.0000000000000000    0.0000000000000000    0.0000000000000000
     0.0000000000000000   16.0000000000000000    0.0000000000000000
     0.0000000000000000    0.0000000000000000   16.0000000000000000
 Ni  C   H  
  30   2   6
Cartesian
  4.1627727999999999  7.4585630399999996  6.3055320000000004
  8.3153918400000002  7.2304694400000002 10.6098798399999996
  8.7959996799999995 11.0294361599999995  6.0983798399999998
  9.1494265600000002  4.5600137600000004  5.4757939200000001
  5.9567356800000004  7.2592820800000002 10.0456825599999995
 10.5821235199999997 10.0624092800000007  7.3777025600000004
 10.8645953599999991  5.4010457599999997  6.9296929599999997
  5.1853428800000003  9.4403991999999999  5.7820827200000000
  5.1614793600000004  5.5243583999999997  5.6751008000000001
  5.8454345600000002  7.6333761600000001  4.1797283199999997
  9.0241716800000003  4.2546856000000002  7.8884393599999996
  8.6989270399999992 10.9037803199999992  8.5035947200000006
  9.8579222400000006  9.0048564800000008  5.2678294399999999
 10.5236518399999994  6.7035675200000000  4.9234169600000000
  7.2657324799999996  9.2539020799999996  9.3804638400000009
  7.2984726400000000  5.2071212800000000  9.4229323199999993
  7.3956121599999998  9.4561172800000008  5.0334905599999997
  7.1883952000000004  5.5610870400000003  4.6268988799999997
  7.1083979199999998  5.0358708800000000  6.9452920000000002
  6.7447958400000001 10.3979156800000005  7.2627987200000002
  5.4150641600000000  8.5558395199999993  8.0308057599999998
  5.3348329600000000  6.1476534400000000  8.0030336000000002
  8.3358294399999995  7.4841209600000003  4.2776319999999997
  9.7333571200000009  8.7036663999999995  9.2952497600000008
  9.6660913599999994  6.2851436800000000  8.7971553599999996
 10.7575870400000007  7.7595179200000004  7.1805489600000003
  7.5390033599999997  7.1721809600000004  8.3854619199999991
  8.5211121599999995  8.9065460800000000  7.1698324800000002
  8.8366307200000005  6.5924964800000003  6.4510702400000000
  6.6070875200000003  7.4791936000000003  6.2605225600000001
 10.8759977600000006  9.1450406399999995 11.1405247999999997
 10.0279742400000007  7.8969307200000003 11.3269758399999994
 10.4207529599999997 10.0453408000000000 11.5703211199999991
 11.1486020799999999  9.4257606400000000 10.0415302400000002
  9.3926169599999998  7.9896369600000003 12.2435065600000001
 10.6521812800000006  6.9957348799999997 11.4216310399999994
 11.8912892800000005  9.0146796800000004 11.5499943999999992
  7.0001982399999996  6.1686225600000002 10.8736288000000005
